\ENCODING=ISO-8859-1
\Problem name: IloCplex

Minimize
 obj: 128 x1 + 138 x2 + 139 x3 + 105 x4 + 159 x5 + 204 x6 + 92 x7 + 148 x8
      + 206 x9 + 121 x10 + 101 x11 + 110 x12 + 153 x13 + 121 x14 + 101 x15
      + 89 x16 + 106 x17 + 121 x18 + 141 x19 + 85 x20 + 129 x21 + 202 x22
      + 85 x23 + 120 x24 + 81 x25 + 95 x26 + 90 x27 + 90 x28 + 85 x29 + 82 x30
      + 57 x31 + 105 x32 + 48 x33 + 110 x34 + 121 x35 + 59 x36 + 107 x37
      + 53 x38 + 197 x39 + 108 x40 + 133 x41 + 197 x42 + 128 x43 + 196 x44
      + 85 x45 + 54 x46 + 54 x47 + 135 x48 + 130 x49 + 124 x50 + 132 x51
      + 67 x52 + 128 x53 + 67 x54 + 128 x55 + 105 x56 + 98 x57 + 92 x58
      + 85 x59 + 99 x60 + 59 x61 + 113 x62 + 47 x63 + 110 x64 + 108 x65
      + 49 x66 + 122 x67 + 112 x68 + 112 x69 + 125 x70 + 125 x71 + 94 x72
      + 86 x73 + 125 x74 + 199 x75 + 88 x76 + 90 x77 + 203 x78 + 197 x79
      + 90 x80 + 125 x81 + 189 x82 + 100 x83 + 189 x84 + 84 x85 + 103 x86
      + 107 x87 + 88 x88 + 186 x89 + 108 x90 + 98 x91 + 87 x92 + 97 x93
      + 186 x94 + 240 x95 + 102 x96 + 97 x97 + 243 x98 + 240 x99 + 50 x100
      + 103 x101 + 43 x102 + 104 x103 + 49 x104 + 56 x105 + 97 x106 + 49 x107
      + 98 x108 + 97 x109 + 152 x110 + 92 x111 + 108 x112 + 114 x113 + 242 x114
      + 98 x115 + 240 x116 + 98 x117 + 240 x118 + 201 x119 + 95 x120 + 173 x121
      + 101 x122 + 96 x123 + 175 x124 + 168 x125 + 81 x126 + 213 x127 + 69 x128
      + 215 x129 + 63 x130 + 216 x131 + 212 x132 + 66 x133 + 211 x134 + 66 x135
      + 226 x136 + 217 x137 + 217 x138 + 154 x139 + 86 x140 + 112 x141
      + 112 x142 + 227 x143 + 104 x144 + 221 x145 + 214 x146 + 220 x147
      + 204 x148 + 97 x149 + 172 x150 + 165 x151 + 171 x152 + 96 x153
      + 100 x154 + 75 x155 + 77 x156 + 70 x157 + 77 x158 + 71 x159 + 74 x160
      + 74 x161 + 152 x162 + 90 x163 + 72 x164 + 159 x165 + 64 x166 + 159 x167
      + 58 x168 + 160 x169 + 156 x170 + 61 x171 + 155 x172 + 61 x173 + 224 x174
      + 97 x175 + 227 x176 + 217 x177 + 50 x178 + 43 x179 + 243 x180 + 203 x181
      + 91 x182 + 175 x183 + 97 x184 + 168 x185 + 168 x186 + 204 x187
      + 172 x188 + 165 x189 + 171 x190 + 243 x191 + 69 x192 + 217 x193
      + 61 x194 + 217 x195 + 185 x196 + 217 x197 + 84 x198 + 186 x199
Subject To
 NV:  x1 + x2 + x3 + x4 + x5 + x6 + x7 + x8 + x9 + x10 + x11 + x12 + x13 + x14
      + x15 + x16 + x17 + x18 + x19 + x20 + x21 + x22 + x23 + x24 + x25 + x26
      + x27 + x28 + x29 + x30 + x31 + x32 + x33 + x34 + x35 + x36 + x37 + x38
      + x39 + x40 + x41 + x42 + x43 + x44 + x45 + x46 + x47 + x48 + x49 + x50
      + x51 + x52 + x53 + x54 + x55 + x56 + x57 + x58 + x59 + x60 + x61 + x62
      + x63 + x64 + x65 + x66 + x67 + x68 + x69 + x70 + x71 + x72 + x73 + x74
      + x75 + x76 + x77 + x78 + x79 + x80 + x81 + x82 + x83 + x84 + x85 + x86
      + x87 + x88 + x89 + x90 + x91 + x92 + x93 + x94 + x95 + x96 + x97 + x98
      + x99 + x100 + x101 + x102 + x103 + x104 + x105 + x106 + x107 + x108
      + x109 + x110 + x111 + x112 + x113 + x114 + x115 + x116 + x117 + x118
      + x119 + x120 + x121 + x122 + x123 + x124 + x125 + x126 + x127 + x128
      + x129 + x130 + x131 + x132 + x133 + x134 + x135 + x136 + x137 + x138
      + x139 + x140 + x141 + x142 + x143 + x144 + x145 + x146 + x147 + x148
      + x149 + x150 + x151 + x152 + x153 + x154 + x155 + x156 + x157 + x158
      + x159 + x160 + x161 + x162 + x163 + x164 + x165 + x166 + x167 + x168
      + x169 + x170 + x171 + x172 + x173 + x174 + x175 + x176 + x177 + x178
      + x179 + x180 + x181 + x182 + x183 + x184 + x185 + x186 + x187 + x188
      + x189 + x190 + x191 + x192 + x193 + x194 + x195 + x196 + x197 + x198
      + x199 <= 7
 c2:  x5 + x8 + x15 + x17 + x21 + x43 + x50 + x69 + x83 + x86  = 1
 c3:  x3 + x12 + x17 + x21 + x43 + x50 + x69 + x83 + x86  = 1
 c4:  x7 + x10 + x18 + x20 + x24 + x26 + x72 + x73 + x76 + x85 + x88 + x92  = 1
 c5:  x1 + x12 + x16 + x28 + x30 + x31 + x33 + x35 + x37 + x40 + x46 + x47
      + x51 + x54 + x58 + x60 + x62 + x66 + x96 + x98 + x99 + x100 + x102
      + x104 + x105 + x107 + x110 + x112 + x113 + x114 + x116 + x118 + x120
      + x122 + x124 + x125 + x126 + x128 + x130 + x133 + x135 + x136 + x137
      + x138 + x139 + x141 + x142 + x143 + x145 + x146 + x147 + x148 + x150
      + x151 + x152 + x154 + x156 + x157 + x158 + x159 + x160 + x161 + x163
      + x164 + x166 + x168 + x171 + x173 + x176 + x177 + x178 + x179 + x180
      + x181 + x183 + x185 + x186 + x187 + x188 + x189 + x190 + x191 + x193
      + x195 + x197  = 1
 c6:  x4 + x27 + x32 + x34 + x64 + x77 + x80 + x198  = 1
 c7:  x5 + x8 + x14 + x23 + x26 + x71 + x74 + x81  = 1
 c8:  x6 + x9 + x22 + x40 + x75 + x78 + x79 + x82 + x84 + x89 + x94 + x197  = 1
 c9:  x6 + x9 + x22 + x39 + x42 + x44 + x75 + x78 + x79 + x82 + x84 + x90 + x91
      + x93 + x96 + x97 + x101 + x103 + x106 + x108 + x109 + x111 + x115 + x117
      + x120 + x122 + x123 + x126 + x129 + x131 + x132 + x134 + x136 + x140
      + x143 + x149 + x154 + x163 + x164 + x167 + x169 + x170 + x172 + x174
      + x176 + x182 + x184 + x192 + x195 + x197  = 1
 c10: x2 + x10 + x18 + x20 + x24 + x26 + x72 + x73 + x76 + x85 + x88 + x92  = 1
 c11: x3 + x13 + x19 + x41 + x48 + x49 + x67 + x70 + x71 + x74 + x81  = 1
 c12: x1 + x12 + x16 + x28 + x29 + x35 + x37 + x40 + x45 + x51 + x53 + x55
      + x56 + x58 + x60 + x62 + x65 + x68 + x87 + x90 + x91 + x93 + x96 + x97
      + x101 + x103 + x106 + x108 + x109 + x110 + x115 + x117 + x120 + x122
      + x123 + x127 + x129 + x131 + x132 + x134 + x139 + x144 + x149 + x154
      + x162 + x165 + x167 + x169 + x170 + x172 + x175 + x182 + x184 + x193
      + x195 + x197  = 1
 c13: x6 + x8 + x14 + x23 + x26 + x72 + x73 + x76 + x85 + x88 + x92  = 1
 c14: x6 + x9 + x22 + x39 + x42 + x44 + x75 + x78 + x79 + x82 + x84 + x89 + x94
      + x196 + x199  = 1
 c15: x1 + x12 + x16 + x28 + x29 + x35 + x37 + x40 + x45 + x51 + x53 + x55
      + x56 + x57 + x60 + x62 + x65 + x68 + x87 + x90 + x91 + x93 + x96 + x97
      + x101 + x103 + x106 + x108 + x109 + x111 + x115 + x117 + x119 + x122
      + x123 + x127 + x129 + x131 + x132 + x134 + x140 + x144 + x148 + x154
      + x163 + x165 + x167 + x169 + x170 + x172 + x175 + x181 + x184 + x187
      + x193 + x195 + x197  = 1
 c16: x4 + x27 + x32 + x34 + x64 + x77 + x80 + x198  = 1
 c17: x5 + x8 + x14 + x23 + x26 + x72 + x74 + x81  = 1
 c18: x4 + x28 + x29 + x36 + x38 + x46 + x48 + x49 + x67 + x70 + x72 + x73
      + x76 + x85 + x87 + x90 + x92  = 1
 c19: x6 + x9 + x22 + x39 + x42 + x44 + x75 + x78 + x79 + x82 + x84 + x89 + x94
      + x196 + x199  = 1
 c20: x6 + x9 + x22 + x39 + x42 + x44 + x75 + x78 + x79 + x82 + x84 + x89 + x94
      + x196 + x199  = 1
 c21: x4 + x27 + x32 + x34 + x64 + x77 + x80 + x198  = 1
 c22: x2 + x10 + x18 + x21 + x43 + x50 + x69 + x83 + x86  = 1
 c23: x6 + x9 + x22 + x39 + x42 + x44 + x75 + x78 + x79 + x82 + x84 + x89 + x94
      + x196 + x199  = 1
 c24: x7 + x11 + x15 + x17 + x21 + x43 + x50 + x69 + x84 + x89 + x94 + x196
      + x199  = 1
 c25: x2 + x11 + x15 + x17 + x21 + x43 + x49 + x67 + x70 + x71 + x74 + x81  = 1
 c26: x6 + x9 + x22 + x39 + x42 + x44 + x75 + x78 + x79 + x81  = 1
 c27: x5 + x8 + x14 + x23 + x26 + x72 + x73 + x76 + x85 + x88 + x91 + x93 + x96
      + x97 + x100 + x103 + x105 + x108 + x109 + x111 + x115 + x117 + x120
      + x121 + x124 + x126 + x128 + x131 + x132 + x134 + x140 + x144 + x145
      + x149 + x150 + x154 + x155 + x156 + x158 + x163 + x164 + x166 + x169
      + x170 + x172 + x175 + x178 + x182 + x183 + x188 + x192 + x194  = 1
 c28: x5 + x8 + x14 + x24 + x25 + x30 + x31 + x34 + x64 + x77 + x80 + x198  = 1
 c29: x1 + x13 + x18 + x21 + x43 + x50 + x69 + x83 + x86  = 1
 c30: x6 + x9 + x22 + x39 + x42 + x44 + x75 + x78 + x79 + x82 + x84 + x89 + x94
      + x196 + x199  = 1
 c31: x3 + x13 + x19 + x41 + x47 + x52 + x54 + x56 + x57 + x59 + x61 + x64
      + x77 + x80 + x198  = 1
 c32: x3 + x13 + x19 + x41 + x48 + x49 + x67 + x70 + x71 + x74 + x81  = 1
 c33: x2 + x10 + x18 + x20 + x24 + x26 + x72 + x73 + x76 + x85 + x88 + x92  = 1
 c34: x2 + x10 + x19 + x41 + x48 + x50 + x69 + x83 + x86  = 1
 c35: x4 + x27 + x32 + x33 + x36 + x37 + x40 + x45 + x51 + x53 + x55 + x57
      + x59 + x61 + x63 + x66 + x95 + x98 + x99 + x100 + x102 + x104 + x106
      + x108 + x110 + x112 + x113 + x115 + x117 + x118 + x119 + x121 + x124
      + x125 + x127 + x129 + x131 + x132 + x135 + x138 + x140 + x142 + x143
      + x145 + x146 + x147 + x148 + x150 + x151 + x152 + x153 + x155 + x156
      + x157 + x161 + x162 + x165 + x167 + x169 + x170 + x173 + x174 + x176
      + x177 + x178 + x179 + x180 + x182 + x184 + x186 + x187 + x188 + x189
      + x190 + x191 + x192 + x194  = 1
 c36: x1 + x12 + x16 + x28 + x29 + x35 + x37 + x40 + x45 + x51 + x53 + x55
      + x56 + x57 + x60 + x62 + x65 + x68 + x87 + x90 + x91 + x94 + x196 + x199
       = 1
 c37: x6 + x9 + x22 + x39 + x42 + x44 + x75 + x78 + x79 + x82 + x84 + x89 + x94
      + x196 + x199  = 1
 c38: x6 + x9 + x22 + x39 + x42 + x44 + x75 + x78 + x80 + x198  = 1
 c39: x3 + x13 + x19 + x41 + x48 + x49 + x67 + x70 + x71 + x74 + x81  = 1
 c40: x5 + x9 + x22 + x39 + x41 + x76 + x85 + x88 + x92  = 1
 c41: x1 + x12 + x16 + x28 + x29 + x35 + x38 + x45 + x51 + x53 + x55 + x56
      + x57 + x59 + x62 + x65 + x68 + x88 + x92  = 1
 c42: x6 + x9 + x43 + x50 + x69 + x83 + x86  = 1
 c43: x7 + x11 + x15 + x17 + x21 + x43 + x50 + x69 + x83 + x86  = 1
 c44: x5 + x8 + x15 + x17 + x21 + x22 + x39 + x42 + x44 + x75 + x78 + x79 + x82
      + x84 + x89 + x94 + x196 + x199  = 1
 c45: x5 + x8 + x14 + x23 + x26 + x72 + x73 + x76 + x85 + x88 + x92  = 1
 c46: x4 + x27 + x32 + x34 + x64 + x77 + x80 + x198  = 1
 c47: x2 + x10 + x18 + x20 + x24 + x25 + x29 + x35 + x37 + x40 + x45 + x52
      + x54 + x55 + x56 + x57 + x60 + x62 + x65 + x68 + x87 + x90 + x91 + x93
      + x95 + x98 + x101 + x103 + x106 + x108 + x109 + x111 + x114 + x117
      + x120 + x122 + x123 + x126 + x128 + x130 + x132 + x134 + x140 + x144
      + x149 + x154 + x158 + x159 + x163 + x164 + x166 + x168 + x170 + x172
      + x175 + x180 + x182 + x184 + x191 + x192 + x194  = 1
 c48: x4 + x27 + x32 + x34 + x64 + x77 + x80 + x199  = 1
 c49: x4 + x27 + x32 + x34 + x64 + x77 + x80 + x198  = 1
 c50: x7 + x11 + x15 + x17 + x21 + x44 + x50 + x70 + x71 + x74 + x81  = 1
 c51: x3 + x13 + x19 + x42 + x44 + x48 + x49 + x67 + x70 + x71 + x74 + x82
      + x84 + x89 + x94 + x196 + x199  = 1
 c52: x5 + x8 + x14 + x23 + x26 + x72 + x73 + x76 + x86  = 1
 c53: x4 + x27 + x32 + x34 + x63 + x66 + x95 + x98 + x99 + x101 + x103 + x104
      + x105 + x107 + x111 + x113 + x114 + x116 + x118 + x119 + x121 + x124
      + x125 + x127 + x129 + x131 + x133 + x135 + x136 + x137 + x138 + x139
      + x141 + x142 + x144 + x147 + x149 + x152 + x153 + x155 + x156 + x157
      + x160 + x161 + x162 + x165 + x167 + x169 + x171 + x173 + x174 + x176
      + x177 + x180 + x181 + x183 + x185 + x186 + x190 + x191 + x193 + x195
      + x197  = 1
 c54: x3 + x13 + x19 + x41 + x48 + x49 + x68 + x87 + x90 + x91 + x93 + x96
      + x97 + x101 + x103 + x106 + x108 + x109 + x111 + x115 + x117 + x120
      + x122 + x123 + x126 + x129 + x131 + x132 + x134 + x140 + x144 + x149
      + x153 + x163 + x165 + x167 + x169 + x170 + x172 + x175 + x182 + x184
      + x193 + x195 + x197  = 1
 c55: x5 + x8 + x14 + x24 + x25 + x30 + x32 + x34 + x64 + x78 + x79 + x82 + x84
      + x89 + x94 + x196 + x199  = 1
Bounds
 0 <= x1 <= 1
 0 <= x2 <= 1
 0 <= x3 <= 1
 0 <= x4 <= 1
 0 <= x5 <= 1
 0 <= x6 <= 1
 0 <= x7 <= 1
 0 <= x8 <= 1
 0 <= x9 <= 1
 0 <= x10 <= 1
 0 <= x11 <= 1
 0 <= x12 <= 1
 0 <= x13 <= 1
 0 <= x14 <= 1
 0 <= x15 <= 1
 0 <= x16 <= 1
 0 <= x17 <= 1
 0 <= x18 <= 1
 0 <= x19 <= 1
 0 <= x20 <= 1
 0 <= x21 <= 1
 0 <= x22 <= 1
 0 <= x23 <= 1
 0 <= x24 <= 1
 0 <= x25 <= 1
 0 <= x26 <= 1
 0 <= x27 <= 1
 0 <= x28 <= 1
 0 <= x29 <= 1
 0 <= x30 <= 1
 0 <= x31 <= 1
 0 <= x32 <= 1
 0 <= x33 <= 1
 0 <= x34 <= 1
 0 <= x35 <= 1
 0 <= x36 <= 1
 0 <= x37 <= 1
 0 <= x38 <= 1
 0 <= x39 <= 1
 0 <= x40 <= 1
 0 <= x41 <= 1
 0 <= x42 <= 1
 0 <= x43 <= 1
 0 <= x44 <= 1
 0 <= x45 <= 1
 0 <= x46 <= 1
 0 <= x47 <= 1
 0 <= x48 <= 1
 0 <= x49 <= 1
 0 <= x50 <= 1
 0 <= x51 <= 1
 0 <= x52 <= 1
 0 <= x53 <= 1
 0 <= x54 <= 1
 0 <= x55 <= 1
 0 <= x56 <= 1
 0 <= x57 <= 1
 0 <= x58 <= 1
 0 <= x59 <= 1
 0 <= x60 <= 1
 0 <= x61 <= 1
 0 <= x62 <= 1
 0 <= x63 <= 1
 0 <= x64 <= 1
 0 <= x65 <= 1
 0 <= x66 <= 1
 0 <= x67 <= 1
 0 <= x68 <= 1
 0 <= x69 <= 1
 0 <= x70 <= 1
 0 <= x71 <= 1
 0 <= x72 <= 1
 0 <= x73 <= 1
 0 <= x74 <= 1
 0 <= x75 <= 1
 0 <= x76 <= 1
 0 <= x77 <= 1
 0 <= x78 <= 1
 0 <= x79 <= 1
 0 <= x80 <= 1
 0 <= x81 <= 1
 0 <= x82 <= 1
 0 <= x83 <= 1
 0 <= x84 <= 1
 0 <= x85 <= 1
 0 <= x86 <= 1
 0 <= x87 <= 1
 0 <= x88 <= 1
 0 <= x89 <= 1
 0 <= x90 <= 1
 0 <= x91 <= 1
 0 <= x92 <= 1
 0 <= x93 <= 1
 0 <= x94 <= 1
 0 <= x95 <= 1
 0 <= x96 <= 1
 0 <= x97 <= 1
 0 <= x98 <= 1
 0 <= x99 <= 1
 0 <= x100 <= 1
 0 <= x101 <= 1
 0 <= x102 <= 1
 0 <= x103 <= 1
 0 <= x104 <= 1
 0 <= x105 <= 1
 0 <= x106 <= 1
 0 <= x107 <= 1
 0 <= x108 <= 1
 0 <= x109 <= 1
 0 <= x110 <= 1
 0 <= x111 <= 1
 0 <= x112 <= 1
 0 <= x113 <= 1
 0 <= x114 <= 1
 0 <= x115 <= 1
 0 <= x116 <= 1
 0 <= x117 <= 1
 0 <= x118 <= 1
 0 <= x119 <= 1
 0 <= x120 <= 1
 0 <= x121 <= 1
 0 <= x122 <= 1
 0 <= x123 <= 1
 0 <= x124 <= 1
 0 <= x125 <= 1
 0 <= x126 <= 1
 0 <= x127 <= 1
 0 <= x128 <= 1
 0 <= x129 <= 1
 0 <= x130 <= 1
 0 <= x131 <= 1
 0 <= x132 <= 1
 0 <= x133 <= 1
 0 <= x134 <= 1
 0 <= x135 <= 1
 0 <= x136 <= 1
 0 <= x137 <= 1
 0 <= x138 <= 1
 0 <= x139 <= 1
 0 <= x140 <= 1
 0 <= x141 <= 1
 0 <= x142 <= 1
 0 <= x143 <= 1
 0 <= x144 <= 1
 0 <= x145 <= 1
 0 <= x146 <= 1
 0 <= x147 <= 1
 0 <= x148 <= 1
 0 <= x149 <= 1
 0 <= x150 <= 1
 0 <= x151 <= 1
 0 <= x152 <= 1
 0 <= x153 <= 1
 0 <= x154 <= 1
 0 <= x155 <= 1
 0 <= x156 <= 1
 0 <= x157 <= 1
 0 <= x158 <= 1
 0 <= x159 <= 1
 0 <= x160 <= 1
 0 <= x161 <= 1
 0 <= x162 <= 1
 0 <= x163 <= 1
 0 <= x164 <= 1
 0 <= x165 <= 1
 0 <= x166 <= 1
 0 <= x167 <= 1
 0 <= x168 <= 1
 0 <= x169 <= 1
 0 <= x170 <= 1
 0 <= x171 <= 1
 0 <= x172 <= 1
 0 <= x173 <= 1
 0 <= x174 <= 1
 0 <= x175 <= 1
 0 <= x176 <= 1
 0 <= x177 <= 1
 0 <= x178 <= 1
 0 <= x179 <= 1
 0 <= x180 <= 1
 0 <= x181 <= 1
 0 <= x182 <= 1
 0 <= x183 <= 1
 0 <= x184 <= 1
 0 <= x185 <= 1
 0 <= x186 <= 1
 0 <= x187 <= 1
 0 <= x188 <= 1
 0 <= x189 <= 1
 0 <= x190 <= 1
 0 <= x191 <= 1
 0 <= x192 <= 1
 0 <= x193 <= 1
 0 <= x194 <= 1
 0 <= x195 <= 1
 0 <= x196 <= 1
 0 <= x197 <= 1
 0 <= x198 <= 1
 0 <= x199 <= 1
Binaries
 x1  x2  x3  x4  x5  x6  x7  x8  x9  x10  x11  x12  x13  x14  x15  x16  x17 
 x18  x19  x20  x21  x22  x23  x24  x25  x26  x27  x28  x29  x30  x31  x32 
 x33  x34  x35  x36  x37  x38  x39  x40  x41  x42  x43  x44  x45  x46  x47 
 x48  x49  x50  x51  x52  x53  x54  x55  x56  x57  x58  x59  x60  x61  x62 
 x63  x64  x65  x66  x67  x68  x69  x70  x71  x72  x73  x74  x75  x76  x77 
 x78  x79  x80  x81  x82  x83  x84  x85  x86  x87  x88  x89  x90  x91  x92 
 x93  x94  x95  x96  x97  x98  x99  x100  x101  x102  x103  x104  x105  x106 
 x107  x108  x109  x110  x111  x112  x113  x114  x115  x116  x117  x118  x119 
 x120  x121  x122  x123  x124  x125  x126  x127  x128  x129  x130  x131  x132 
 x133  x134  x135  x136  x137  x138  x139  x140  x141  x142  x143  x144  x145 
 x146  x147  x148  x149  x150  x151  x152  x153  x154  x155  x156  x157  x158 
 x159  x160  x161  x162  x163  x164  x165  x166  x167  x168  x169  x170  x171 
 x172  x173  x174  x175  x176  x177  x178  x179  x180  x181  x182  x183  x184 
 x185  x186  x187  x188  x189  x190  x191  x192  x193  x194  x195  x196  x197 
 x198  x199 
End
